num_nodes = 7;
% Depots
nodes = {1,2,3,4,5,6};
num_facilities = 1;
facilities = {6};
storageCapacity = array1d(facilities,[100]);
fixcost = array1d(facilities,[4]);
% Vehicles
num_vehicles = 1;
vehicles = {1};
utilityCost = [100];
transportCapacity = 5;
% Customers
num_customers = 5;
customers = {1,2,3,4,5};
demandProb = array2d(customers, 0..transportCapacity, 
 [0,0.5,0.2,0,0,0.3,
0,0,1,0,0,0,
0,0,0.5,0.4,0,0.1,
0,1,0,0,0,0,
0,1,0,0,0,0,
]);
% Travel Cost
travelCost = array2d(nodes, nodes,
[0,9,10,4,8,9,
9,0,2,13,10,13,
10,2,0,14,9,14,
4,13,14,0,11,7,
8,10,9,11,0,16,
9,13,14,7,16,0,
]);

numSubsets = 31;
customersInSubset = [{1}, {2}, {1, 2}, {3}, {1, 3}, {2, 3}, {1, 2, 3}, {4}, {1, 4}, {2, 4}, {1, 2, 4}, {3, 4}, {1, 3, 4}, {2, 3, 4}, {1, 2, 3, 4}, {5}, {1, 5}, {2, 5}, {1, 2, 5}, {3, 5}, {1, 3, 5}, {2, 3, 5}, {1, 2, 3, 5}, {4, 5}, {1, 4, 5}, {2, 4, 5}, {1, 
2, 4, 5}, {3, 4, 5}, {1, 3, 4, 5}, {2, 3, 4, 5}, {1, 2, 3, 4, 5}];
